
Log started (V11.0.0) Tue May 13 17:38:35 2008

Tried aggregator 1 time.
Reduced MIP has 110 rows, 1001 columns, and 2010 nonzeros.
Presolve time =    0.02 sec.
Clique table members: 100.
MIP emphasis: balance optimality and feasibility.
MIP search method: dynamic search.
Parallel mode: none, using 1 thread.
Root relaxation solution time =    0.02 sec.

        Nodes                                         Cuts/
   Node  Left     Objective  IInf  Best Integer     Best Node    ItCnt     Gap

*     0+    0                         8261.0000      497.3598      150   93.98%
*     0+    0                          520.0000      497.3598      150    4.35%
      0     0      500.6081    21      520.0000      Fract: 6      192    3.73%
      0     0      503.5363    33      520.0000      Cuts: 10      259    3.17%
      0     0      503.6880    37      520.0000       Cuts: 6      294    3.14%
      0     0      503.7359    44      520.0000       Cuts: 7      316    3.13%
      0     0      504.8496    36      520.0000       Cuts: 5      427    2.91%
      0     0      504.9275    43      520.0000       Cuts: 4      463    2.90%
      0     0      504.9441    51      520.0000       Cuts: 5      497    2.90%
      0     0      506.1317    33      520.0000       Cuts: 4      599    2.67%
      0     0      506.6749    32      520.0000       Cuts: 5      617    2.56%
      0     0      506.7415    38      520.0000       Cuts: 5      655    2.55%
      0     0      506.7416    35      520.0000       Cuts: 4      669    2.55%
*     0+    0                          516.0000      506.7416      669    1.79%
      0     2      507.0000    30      516.0000      506.7416      669    1.79%
    100    88      508.0000    12      516.0000      507.0000     4387    1.74%
    200   121      511.2158    13      516.0000      507.0000     5864    1.74%
    300   178      508.0000    14      516.0000      507.0000     7670    1.74%
    400   236        cutoff            516.0000      507.0000    11580    1.74%
    500   283      511.0000     6      516.0000      511.0000    15344    0.97%
    600   288      515.0000    14      516.0000      511.0000    17660    0.97%
    700   297      514.0315    27      516.0000      511.0000    19903    0.97%
*   771+  180                          515.0000      511.0000    25156    0.78%
    800   178      513.0000    16      515.0000      511.0000    25602    0.78%
    900   180    infeasible            515.0000      511.0000    27877    0.78%
   1000   218      512.0000    21      515.0000      511.0000    31066    0.78%
Elapsed time =   5.42 sec. (tree size =  0.10 MB, solutions = 4)
   1100   249      512.0000    20      515.0000      511.0000    33797    0.78%
   1200   330      512.0000    23      515.0000      511.0000    35310    0.78%
   1300   411      512.0000    12      515.0000      511.0000    36622    0.78%
   1400   482      512.2351    26      515.0000      511.0000    40646    0.78%
   1500   519      514.0000    18      515.0000      511.0000    43256    0.78%
   1600   599      513.0000    20      515.0000      511.0000    45620    0.78%
*  1647   455      integral     0      514.0000      511.0000    46524    0.58%
   1700   502      513.0000    16      514.0000      511.0000    47609    0.58%
   1800   581      513.0000    28      514.0000      511.0000    49752    0.58%
   1900   538        cutoff            514.0000      512.0000    56697    0.39%
   2000   468      512.0000    30      514.0000      512.0000    65144    0.39%
Elapsed time =   9.11 sec. (tree size =  0.23 MB, solutions = 5)
   2100   417        cutoff            514.0000      512.0000    72953    0.39%
   2200   365        cutoff            514.0000      512.0000    79014    0.39%
   2300   287        cutoff            514.0000      512.0000    86482    0.39%
   2400   266        cutoff            514.0000      512.0000    93026    0.39%
   2500   269      513.0000    27      514.0000      512.0000    99416    0.39%
   2600   247      513.0000    18      514.0000      513.0000   102542    0.19%
   2700   247    infeasible            514.0000      513.0000   106519    0.19%
   2800   222      513.0000    20      514.0000      513.0000   110956    0.19%
   2900   240    infeasible            514.0000      513.0000   115016    0.19%
   3000   234    infeasible            514.0000      513.0000   119185    0.19%
Elapsed time =  14.73 sec. (tree size =  0.13 MB, solutions = 5)
   3100   223    infeasible            514.0000      513.0000   122212    0.19%
   3200   215    infeasible            514.0000      513.0000   125079    0.19%
   3300   223    infeasible            514.0000      513.0000   127597    0.19%
   3400   225      513.0000    24      514.0000      513.0000   129866    0.19%
   3500   223      513.0000    18      514.0000      513.0000   134119    0.19%
   3600   218    infeasible            514.0000      513.0000   137592    0.19%
   3700   242    infeasible            514.0000      513.0000   140232    0.19%
   3800   247    infeasible            514.0000      513.0000   141876    0.19%
   3900   247      513.0000    20      514.0000      513.0000   144184    0.19%
   4000   235      513.0000    20      514.0000      513.0000   147041    0.19%
Elapsed time =  18.69 sec. (tree size =  0.14 MB, solutions = 5)
   4100   220    infeasible            514.0000      513.0000   149601    0.19%
   4200   210    infeasible            514.0000      513.0000   152767    0.19%
   4300   206    infeasible            514.0000      513.0000   155084    0.19%
   4400   196      513.0000    19      514.0000      513.0000   158050    0.19%
   4500   232    infeasible            514.0000      513.0000   160540    0.19%
   4600   242      513.0000    22      514.0000      513.0000   162319    0.19%
   4700   261      513.0000    24      514.0000      513.0000   164444    0.19%
   4800   265      513.0000    24      514.0000      513.0000   167565    0.19%
   4900   259      513.0000    20      514.0000      513.0000   170135    0.19%
   5000   259    infeasible            514.0000      513.0000   173215    0.19%
Elapsed time =  23.31 sec. (tree size =  0.15 MB, solutions = 5)
   5100   240    infeasible            514.0000      513.0000   177145    0.19%
   5200   239      513.0000    20      514.0000      513.0000   179973    0.19%
   5300   233    infeasible            514.0000      513.0000   183281    0.19%
   5400   228    infeasible            514.0000      513.0000   186344    0.19%
   5500   233    infeasible            514.0000      513.0000   191505    0.19%
   5600   227      513.0000    18      514.0000      513.0000   195779    0.19%
   5700   210      513.0000    22      514.0000      513.0000   198456    0.19%
   5800   198    infeasible            514.0000      513.0000   201671    0.19%
   5900   192    infeasible            514.0000      513.0000   205217    0.19%
   6000   194      513.0000    22      514.0000      513.0000   208332    0.19%
Elapsed time =  29.75 sec. (tree size =  0.12 MB, solutions = 5)
   6100   190      513.0000    29      514.0000      513.0000   211764    0.19%
   6200   183    infeasible            514.0000      513.0000   216014    0.19%
   6300   164    infeasible            514.0000      513.0000   220032    0.19%
   6400   168    infeasible            514.0000      513.0000   224260    0.19%
   6500   156      513.0000    24      514.0000      513.0000   230173    0.19%
   6600   137    infeasible            514.0000      513.0000   234482    0.19%
   6700   121      513.0000    30      514.0000      513.0000   237880    0.19%
   6800   109    infeasible            514.0000      513.0000   245044    0.19%
   6900    87    infeasible            514.0000      513.0000   248342    0.19%
   7000    64    infeasible            514.0000      513.0000   252432    0.19%
Elapsed time =  37.39 sec. (tree size =  0.05 MB, solutions = 5)
   7100    54    infeasible            514.0000      513.0000   257120    0.19%
   7200    50    infeasible            514.0000      513.0000   262574    0.19%
   7300    36    infeasible            514.0000      513.0000   269298    0.19%
   7400     4      513.0000    28      514.0000      513.0000   275441    0.19%

Cover cuts applied:  527
Mixed integer rounding cuts applied:  20
Gomory fractional cuts applied:  3

Solution pool: 5 solutions saved.

MIP - Integer optimal solution:  Objective = 5.1400000000e+002
Solution time =   41.47 sec.  Iterations = 275677  Nodes = 7407


Incumbent solution
Variable Name           Solution Value
Cmax                        514.000000
X_1_1                         0.000000
X_1_10                        1.000000
X_2_8                         1.000000
X_3_1                         1.000000
X_4_5                         1.000000
X_5_10                        1.000000
X_6_9                         1.000000
X_7_3                         1.000000
X_8_8                         1.000000
X_9_8                         1.000000
X_10_8                        1.000000
X_11_8                        0.000000
X_11_9                        1.000000
X_12_1                        1.000000
X_13_8                        1.000000
X_14_3                        1.000000
X_15_9                        1.000000
X_16_8                        1.000000
X_17_8                        1.000000
X_18_8                        1.000000
X_19_9                        1.000000
X_20_1                        1.000000
X_20_9                        0.000000
X_21_4                        1.000000
X_22_8                        1.000000
X_23_8                        1.000000
X_24_5                        1.000000
X_25_7                        1.000000
X_26_8                        1.000000
X_27_8                        1.000000
X_28_8                        1.000000
X_29_8                        1.000000
X_30_10                       1.000000
X_31_10                       1.000000
X_32_9                        1.000000
X_33_5                        1.000000
X_34_8                        1.000000
X_35_8                        1.000000
X_36_10                       1.000000
X_37_6                        1.000000
X_38_7                        1.000000
X_39_7                        1.000000
X_40_1                        1.000000
X_41_8                        1.000000
X_42_9                        1.000000
X_43_8                        1.000000
X_44_8                        1.000000
X_45_7                        1.000000
X_46_1                        1.000000
X_47_1                        1.000000
X_48_8                        1.000000
X_48_10                       0.000000
X_49_7                        1.000000
X_50_5                        1.000000
X_51_8                        1.000000
X_52_8                        1.000000
X_53_8                        1.000000
X_54_8                        1.000000
X_55_4                        1.000000
X_56_8                        1.000000
X_57_8                        1.000000
X_58_4                        1.000000
X_59_8                        1.000000
X_60_8                        1.000000
X_61_3                        1.000000
X_61_8                       -0.000000
X_62_6                        1.000000
X_63_2                        1.000000
X_64_8                        1.000000
X_65_9                        1.000000
X_66_8                        1.000000
X_67_4                        1.000000
X_68_8                        1.000000
X_69_8                        1.000000
X_70_3                        1.000000
X_70_8                        0.000000
X_71_6                        1.000000
X_72_9                        1.000000
X_73_2                        1.000000
X_74_2                        1.000000
X_75_8                        1.000000
X_76_6                        1.000000
X_77_7                        1.000000
X_78_10                       1.000000
X_79_8                        1.000000
X_80_4                        1.000000
X_81_8                        1.000000
X_82_8                        1.000000
X_83_8                        1.000000
X_84_5                        1.000000
X_85_8                        1.000000
X_86_3                        1.000000
X_87_3                        1.000000
X_88_3                        1.000000
X_89_7                        1.000000
X_90_8                        1.000000
X_91_8                        1.000000
X_92_8                        1.000000
X_93_6                        1.000000
X_94_2                        1.000000
X_95_2                        1.000000
X_96_9                        1.000000
X_97_9                        1.000000
X_98_7                        1.000000
X_99_8                        1.000000
X_100_2                       1.000000
All other variables in the range 1-1001 are 0.
